&INPUT
  fildyn = 'graphene_scf.dyn1'
  asr = 'crystal'
/

